JOBS = 1..3;
MACHINES = 1..3;
SPEED = 5;
time = array3d(JOBS,MACHINES,1..SPEED,[98,33,24,19,17,198,68,48,40,35,245,84,60,50,44,246,85,60,50,44,126,43,31,25,22,193,66,47,39,34,226,78,55,46,40,56,19,13,11,10,146,50,35,29,26]);
energy = array3d(JOBS,MACHINES,1..SPEED,[37,71,78,82,84,13,50,61,67,70,8,43,54,60,64,8,42,54,60,64,28,65,73,77,80,14,51,62,67,71,10,45,57,63,67,57,82,87,89,90,23,60,70,74,77]);
precedence = array2d(JOBS,MACHINES,[0,2,1,0,1,2,2,0,1]);
ME = 1;
TE = 104;
st_old = array2d(JOBS,MACHINES,[44,186,142,0,56,186,142,0,56]);
SpeedScaling = array2d(JOBS,MACHINES,[1,2,5,5,1,2,2,1,2]);
